int NumberPatients = 87
int NumberOfRooms = 8
int NumberSurgeons = 11
int NumberOfDays = 6
Duration = [131,72,85,47,72,119,277,47,140,32,78,210,32,103,74,32,92,40,60,66,32,131,60,47,112,32,47,32,32,98,32,130,47,72,119,131,32,119,98,46,119,66,98,28,72,93,32,105,93,53,66,105,94,103,50,107,131,47,140,98,64,32,31,93,72,112,105,66,30,138,66,157,131,60,107,75,98,47,29,159,66,76,98,98,31,117,123];
Priority = [0,0,0,0,0,0,0,0,0,0,0,0,0,0,0,0,0,0,0,0,0,0,0,0,0,0,0,0,0,0,0,0,0,0,0,0,0,0,0,0,0,0,0,0,0,0,0,0,0,0,0,0,0,0,0,0,0,0,0,0,0,0,0,1,0,0,0,1,0,0,0,0,0,0,0,0,0,0,0,0,0,0,0,1,1,0,0];
Waiting = [23,37,84,548,56,113,389,35,116,39,424,35,155,80,366,116,464,60,221,87,50,361,141,158,49,49,79,79,73,256,172,291,163,227,172,102,98,102,56,84,35,45,221,133,49,428,59,79,199,148,116,22,80,67,99,115,25,25,65,53,141,354,37,120,56,259,57,338,225,116,171,36,115,120,84,487,25,169,52,67,186,106,72,198,135,127,135];
Surgeon = [4,2,5,4,11,1,6,5,13,5,2,3,4,1,5,1,6,7,3,5,8,7,3,3,2,6,6,9,1,6,5,1,3,3,3,15,5,3,1,6,5,1,7,3,7,3,9,2,2,7,3,1,6,5,5,6,2,12,3,2,9,12,2,6,1,5,3,5,1,8,3,5,2,12,6,3,10,7,1,6,1,5,1,9,4,5,2];
BlockAvailability = [[[1,1],[1,0],[0,0],[0,1],[0,1],[0,0],[0,0],[1,0]],[[0,0],[0,1],[0,0],[0,0],[1,1],[0,0],[0,0],[0,0]],[[0,0],[1,0],[0,0],[0,1],[0,0],[0,0],[0,0],[0,1]],[[0,0],[0,0],[0,0],[0,0],[0,0],[0,0],[0,0],[0,0]],[[1,1],[0,1],[0,1],[0,0],[0,0],[1,1],[0,0],[1,0]],[[1,1],[1,0],[0,0],[0,0],[1,0],[0,0],[0,0],[0,0]]];
SurgeonAvailability = [[[1,1],[0,1],[1,0],[1,1],[0,1],[1,1]],[[0,1],[1,0],[1,1],[0,0],[1,1],[1,1]],[[1,1],[1,1],[0,1],[0,1],[1,1],[1,0]],[[1,1],[1,0],[1,1],[1,1],[0,1],[0,0]],[[1,0],[1,1],[1,0],[0,1],[1,1],[0,1]],[[0,0],[1,0],[1,1],[0,1],[0,1],[1,1]],[[1,0],[1,1],[1,1],[1,1],[1,1],[0,1]],[[1,1],[1,1],[0,0],[0,0],[1,1],[1,1]],[[0,1],[0,1],[1,1],[0,0],[1,1],[1,0]],[[0,1],[1,1],[1,1],[1,0],[1,0],[1,0]],[[1,0],[1,1],[1,1],[0,1],[1,1],[0,0]]];
